
  32    1
  10

   0   0   4 2 3 4 7 
   1   1   2 6 5 
   1   1   2 12 5 
   2   2   2 12 5 
   1   3   4 13 11 10 8 
   4   1   4 14 12 10 9 
   1   1   4 16 14 12 9 
   9   1   3 16 14 9 
   4   1   3 21 17 15 
  10   2   3 18 17 16 
  10   2   3 21 17 15 
   8   3   2 17 15 
   9   2   2 16 14 
   1   3   4 22 21 20 19 
   5   3   3 20 19 18 
   8   2   4 23 22 21 19 
  10   4   4 30 26 24 20 
   2   2   3 31 24 22 
  10   3   4 31 30 26 24 
   4   1   3 29 25 23 
   2   1   3 30 26 24 
   1   2   3 30 29 25 
   6   2   3 31 28 27 
   3   3   2 28 27 
   1   3   2 28 27 
   7   3   2 29 27 
   2   3   1 32
   7   1   1 32
   1   1   1 32
   5   1   1 32
   3   2   1 32
   0   0   0 
